p cnf 20 10
e 1 0
a 2 3 0
e 4 0
a 5 0
e 6 7 8 0
a 9 0
e 10 0
a 11 0
e 12 0
a 13 14 0
e 15 0
a 16 0
e 17 18 0
a 19 20 0
-9 -2 -20 16 -17 0
6 8 -3 -5 0
-13 -11 -2 0
-15 -6 -5 10 0
4 2 0
6 8 0
2 12 11 -14 0
14 11 5 0
-20 -16 -12 0
-6 20 -15 0
